(set-logic QF_S)
(declare-const x String)
(declare-const y String)
(assert (str.in.re x (re.* (str.to.re "aa"))))
(assert (= 6 (str.len x)))
(assert (not (= x "bbbbaa")))
(assert (not (= x "bbaabb")))
(assert (not (= x "bbaaaa")))
(check-sat)
